cost: 772.44
Route 1:           0    2   16    3   20    8    1    0
Route 2:           0   10   24    4   19    0
Route 3:           0   23   18   28   35   50    7   49   43    9    0
Route 4:           0   25   46   30   26    0
Route 5:           0   29   27   13   38   34   31    0
Route 6:           0   36   11    5   41   40    0
Route 7:           0   39   21   47   12   45   17    0
Route 8:           0   42   15   32   14    0
Route 9:           0   48   44   37    6   33   22    0
